(set-logic QF_NRA)
(set-info :source |Benchmarks generated from hycomp (https://es-static.fbk.eu/tools/hycomp/). BMC instances of non-linear hybrid automata taken from: Alessandro Cimatti, Sergio Mover, Stefano Tonetta, A quantifier-free SMT encoding of non-linear hybrid automata, FMCAD 2012 and Alessandro Cimatti, Sergio Mover, Stefano Tonetta, Quantier-free encoding of invariants for Hybrid Systems, Formal Methods in System Design. This instance solves a BMC problem of depth 2 and uses the quantifier free encoding with lemmas encoding. Contacts: Sergio Mover (mover@fbk.eu), Stefano Tonetta (tonettas@fbk.eu), Alessandro Cimatti (cimatti@fbk.eu).|)
(set-info :smt-lib-version 2.0)
(set-info :category "industrial")
(set-info :status unsat)
;; MathSAT API call trace
;; generated on Mon Mar 19 10:38:51 2012
(declare-fun b.y__AT0 () Real)
(declare-fun b.counter.0__AT0 () Bool)
(declare-fun b.EVENT.0__AT0 () Bool)
(declare-fun b.counter.3__AT0 () Bool)
(declare-fun b.counter.1__AT0 () Bool)
(declare-fun b.event_is_timed__AT1 () Bool)
(declare-fun b.bool_atom__AT1 () Bool)
(declare-fun b.event_is_timed__AT2 () Bool)
(declare-fun b.g__AT0 () Real)
(declare-fun b.bool_atom__AT2 () Bool)
(declare-fun b.speed_y__AT0 () Real)
(declare-fun b.y__AT2 () Real)
(declare-fun b.time__AT2 () Real)
(declare-fun b.x__AT1 () Real)
(declare-fun b.y__AT1 () Real)
(declare-fun b.delta__AT2 () Real)
(declare-fun b.counter.2__AT0 () Bool)
(declare-fun b.counter.0__AT1 () Bool)
(declare-fun b.x__AT2 () Real)
(declare-fun b.EVENT.0__AT2 () Bool)
(declare-fun b.counter.1__AT1 () Bool)
(declare-fun b.EVENT.1__AT2 () Bool)
(declare-fun b.counter.2__AT1 () Bool)
(declare-fun b.event_is_timed__AT0 () Bool)
(declare-fun b.counter.3__AT1 () Bool)
(declare-fun b.bool_atom__AT0 () Bool)
(declare-fun b.x__AT0 () Real)
(declare-fun b.speed_y__AT2 () Real)
(declare-fun b.counter.0__AT2 () Bool)
(declare-fun b.delta__AT1 () Real)
(declare-fun b.speed_y__AT1 () Real)
(declare-fun b.counter.1__AT2 () Bool)
(declare-fun b.time__AT1 () Real)
(declare-fun b.EVENT.0__AT1 () Bool)
(declare-fun b.counter.2__AT2 () Bool)
(declare-fun b.time__AT0 () Real)
(declare-fun b.EVENT.1__AT1 () Bool)
(declare-fun b.counter.3__AT2 () Bool)
(declare-fun b.delta__AT0 () Real)
(declare-fun b.EVENT.1__AT0 () Bool)
(assert (let ((.def_66 (* (- 1.0) b.g__AT0)))
(let ((.def_69 (* (/ 1 2) .def_66)))
(let ((.def_81 (* 2.0 .def_69)))
(let ((.def_125 (* (- 1.0) .def_81)))
(let ((.def_585 (* .def_125 b.delta__AT2)))
(let ((.def_588 (<= .def_585 b.speed_y__AT2)))
(let ((.def_595 (not .def_588)))
(let ((.def_548 (<= 0.0 b.speed_y__AT2)))
(let ((.def_596 (or .def_548 .def_595)))
(let ((.def_586 (<= b.speed_y__AT2 .def_585)))
(let ((.def_562 (<= b.speed_y__AT2 0.0 )))
(let ((.def_563 (not .def_562)))
(let ((.def_594 (or .def_563 .def_586)))
(let ((.def_597 (and .def_594 .def_596)))
(let ((.def_116 (<= b.g__AT0 0.0 )))
(let ((.def_598 (or .def_116 .def_597)))
(let ((.def_590 (not .def_586)))
(let ((.def_591 (or .def_562 .def_590)))
(let ((.def_549 (not .def_548)))
(let ((.def_589 (or .def_549 .def_588)))
(let ((.def_592 (and .def_589 .def_591)))
(let ((.def_121 (<= 0.0 b.g__AT0)))
(let ((.def_593 (or .def_121 .def_592)))
(let ((.def_599 (and .def_593 .def_598)))
(let ((.def_587 (and .def_562 .def_586)))
(let ((.def_600 (and .def_587 .def_599)))
(let ((.def_544 (* .def_81 b.delta__AT2)))
(let ((.def_545 (+ b.speed_y__AT2 .def_544)))
(let ((.def_560 (<= .def_545 0.0 )))
(let ((.def_561 (not .def_560)))
(let ((.def_580 (or .def_561 .def_562)))
(let ((.def_546 (<= 0.0 .def_545)))
(let ((.def_579 (or .def_546 .def_549)))
(let ((.def_581 (and .def_579 .def_580)))
(let ((.def_582 (or .def_121 .def_581)))
(let ((.def_547 (not .def_546)))
(let ((.def_576 (or .def_547 .def_548)))
(let ((.def_575 (or .def_560 .def_563)))
(let ((.def_577 (and .def_575 .def_576)))
(let ((.def_578 (or .def_116 .def_577)))
(let ((.def_583 (and .def_578 .def_582)))
(let ((.def_574 (and .def_546 .def_548)))
(let ((.def_584 (and .def_574 .def_583)))
(let ((.def_601 (or .def_584 .def_600)))
(let ((.def_535 (* b.speed_y__AT2 b.delta__AT2)))
(let ((.def_533 (* b.delta__AT2 b.delta__AT2)))
(let ((.def_534 (* .def_69 .def_533)))
(let ((.def_536 (+ .def_534 .def_535)))
(let ((.def_521 (* (- 1.0) b.x__AT2)))
(let ((.def_522 (* b.x__AT2 .def_521)))
(let ((.def_537 (* (- 1.0) .def_522)))
(let ((.def_540 (+ .def_537 .def_536)))
(let ((.def_541 (+ b.y__AT2 .def_540)))
(let ((.def_554 (<= .def_541 0.0 )))
(let ((.def_568 (not .def_554)))
(let ((.def_552 (<= b.y__AT2 .def_522)))
(let ((.def_569 (or .def_552 .def_568)))
(let ((.def_523 (<= .def_522 b.y__AT2)))
(let ((.def_566 (not .def_523)))
(let ((.def_542 (<= 0.0 .def_541)))
(let ((.def_567 (or .def_542 .def_566)))
(let ((.def_570 (and .def_567 .def_569)))
(let ((.def_564 (or .def_561 .def_563)))
(let ((.def_565 (not .def_564)))
(let ((.def_571 (or .def_565 .def_570)))
(let ((.def_556 (not .def_542)))
(let ((.def_557 (or .def_523 .def_556)))
(let ((.def_553 (not .def_552)))
(let ((.def_555 (or .def_553 .def_554)))
(let ((.def_558 (and .def_555 .def_557)))
(let ((.def_550 (or .def_547 .def_549)))
(let ((.def_551 (not .def_550)))
(let ((.def_559 (or .def_551 .def_558)))
(let ((.def_572 (and .def_559 .def_571)))
(let ((.def_543 (and .def_523 .def_542)))
(let ((.def_573 (and .def_543 .def_572)))
(let ((.def_602 (and .def_573 .def_601)))
(let ((.def_58 (<= b.g__AT0 10.0 )))
(let ((.def_57 (<= 8.0 b.g__AT0)))
(let ((.def_59 (and .def_57 .def_58)))
(let ((.def_603 (and .def_59 .def_602)))
(let ((.def_213 (not b.counter.0__AT1)))
(let ((.def_527 (or b.counter.1__AT1 .def_213)))
(let ((.def_208 (not b.counter.2__AT1)))
(let ((.def_528 (or .def_208 .def_527)))
(let ((.def_529 (or b.counter.3__AT1 .def_528)))
(let ((.def_524 (and .def_59 .def_523)))
(let ((.def_518 (not b.EVENT.0__AT2)))
(let ((.def_516 (not b.EVENT.1__AT2)))
(let ((.def_519 (or .def_516 .def_518)))
(let ((.def_430 (not b.counter.1__AT2)))
(let ((.def_4 (not b.counter.0__AT2)))
(let ((.def_509 (or .def_4 .def_430)))
(let ((.def_513 (or b.counter.3__AT2 .def_509)))
(let ((.def_510 (or b.counter.2__AT2 .def_509)))
(let ((.def_8 (not b.counter.2__AT2)))
(let ((.def_508 (or .def_4 .def_8)))
(let ((.def_511 (and .def_508 .def_510)))
(let ((.def_447 (not b.counter.3__AT2)))
(let ((.def_512 (or .def_447 .def_511)))
(let ((.def_514 (and .def_512 .def_513)))
(let ((.def_520 (and .def_514 .def_519)))
(let ((.def_525 (and .def_520 .def_524)))
(let ((.def_503 (<= 0.0 b.delta__AT1)))
(let ((.def_292 (not b.EVENT.0__AT1)))
(let ((.def_290 (not b.EVENT.1__AT1)))
(let ((.def_379 (and .def_290 .def_292)))
(let ((.def_381 (not .def_379)))
(let ((.def_504 (or .def_381 .def_503)))
(let ((.def_505 (or b.EVENT.1__AT1 .def_504)))
(let ((.def_416 (= b.bool_atom__AT1 b.bool_atom__AT2)))
(let ((.def_412 (= b.counter.0__AT2 b.counter.0__AT1)))
(let ((.def_410 (= b.counter.1__AT2 b.counter.1__AT1)))
(let ((.def_408 (= b.counter.2__AT2 b.counter.2__AT1)))
(let ((.def_407 (= b.counter.3__AT2 b.counter.3__AT1)))
(let ((.def_409 (and .def_407 .def_408)))
(let ((.def_411 (and .def_409 .def_410)))
(let ((.def_413 (and .def_411 .def_412)))
(let ((.def_499 (and .def_413 .def_416)))
(let ((.def_500 (or .def_381 .def_499)))
(let ((.def_501 (or b.EVENT.1__AT1 .def_500)))
(let ((.def_488 (* .def_66 b.delta__AT1)))
(let ((.def_489 (* (- 1.0) b.speed_y__AT2)))
(let ((.def_492 (+ .def_489 .def_488)))
(let ((.def_493 (+ b.speed_y__AT1 .def_492)))
(let ((.def_494 (= .def_493 0.0 )))
(let ((.def_479 (* (- 1.0) b.y__AT2)))
(let ((.def_309 (* b.speed_y__AT1 b.delta__AT1)))
(let ((.def_483 (+ .def_309 .def_479)))
(let ((.def_307 (* b.delta__AT1 b.delta__AT1)))
(let ((.def_308 (* .def_69 .def_307)))
(let ((.def_484 (+ .def_308 .def_483)))
(let ((.def_485 (+ b.y__AT1 .def_484)))
(let ((.def_486 (= .def_485 0.0 )))
(let ((.def_399 (= b.x__AT1 b.x__AT2)))
(let ((.def_487 (and .def_399 .def_486)))
(let ((.def_495 (and .def_487 .def_494)))
(let ((.def_496 (or .def_381 .def_495)))
(let ((.def_402 (= b.y__AT1 b.y__AT2)))
(let ((.def_474 (and .def_399 .def_402)))
(let ((.def_405 (= b.speed_y__AT1 b.speed_y__AT2)))
(let ((.def_475 (and .def_405 .def_474)))
(let ((.def_471 (= b.delta__AT1 0.0 )))
(let ((.def_472 (and .def_379 .def_471)))
(let ((.def_473 (not .def_472)))
(let ((.def_476 (or .def_473 .def_475)))
(let ((.def_477 (or b.EVENT.1__AT1 .def_476)))
(let ((.def_464 (and .def_405 .def_413)))
(let ((.def_465 (or b.bool_atom__AT1 .def_464)))
(let ((.def_439 (or .def_4 b.counter.0__AT1)))
(let ((.def_438 (or b.counter.0__AT2 .def_213)))
(let ((.def_440 (and .def_438 .def_439)))
(let ((.def_441 (and .def_430 .def_440)))
(let ((.def_442 (or b.counter.1__AT1 .def_441)))
(let ((.def_203 (not b.counter.1__AT1)))
(let ((.def_437 (or b.counter.1__AT2 .def_203)))
(let ((.def_443 (and .def_437 .def_442)))
(let ((.def_455 (and .def_8 .def_443)))
(let ((.def_456 (or b.counter.2__AT1 .def_455)))
(let ((.def_450 (and .def_213 .def_430)))
(let ((.def_451 (or b.counter.1__AT1 .def_450)))
(let ((.def_452 (and .def_437 .def_451)))
(let ((.def_453 (and b.counter.2__AT2 .def_452)))
(let ((.def_454 (or .def_208 .def_453)))
(let ((.def_457 (and .def_454 .def_456)))
(let ((.def_458 (and b.counter.3__AT2 .def_457)))
(let ((.def_459 (or b.counter.3__AT1 .def_458)))
(let ((.def_444 (and b.counter.2__AT2 .def_443)))
(let ((.def_445 (or b.counter.2__AT1 .def_444)))
(let ((.def_433 (or b.counter.1__AT2 b.counter.1__AT1)))
(let ((.def_431 (and b.counter.0__AT2 .def_430)))
(let ((.def_432 (or .def_203 .def_431)))
(let ((.def_434 (and .def_432 .def_433)))
(let ((.def_435 (and .def_8 .def_434)))
(let ((.def_436 (or .def_208 .def_435)))
(let ((.def_446 (and .def_436 .def_445)))
(let ((.def_448 (and .def_446 .def_447)))
(let ((.def_222 (not b.counter.3__AT1)))
(let ((.def_449 (or .def_222 .def_448)))
(let ((.def_460 (and .def_449 .def_459)))
(let ((.def_427 (* b.speed_y__AT2 b.speed_y__AT2)))
(let ((.def_199 (* b.speed_y__AT1 b.speed_y__AT1)))
(let ((.def_428 (= .def_199 .def_427)))
(let ((.def_425 (+ b.speed_y__AT1 b.speed_y__AT2)))
(let ((.def_426 (= .def_425 0.0 )))
(let ((.def_429 (and .def_426 .def_428)))
(let ((.def_461 (and .def_429 .def_460)))
(let ((.def_424 (not b.bool_atom__AT1)))
(let ((.def_462 (or .def_424 .def_461)))
(let ((.def_295 (* (- 1.0) b.x__AT1)))
(let ((.def_296 (* b.x__AT1 .def_295)))
(let ((.def_421 (= b.y__AT1 .def_296)))
(let ((.def_322 (<= 0.0 b.speed_y__AT1)))
(let ((.def_323 (not .def_322)))
(let ((.def_422 (and .def_323 .def_421)))
(let ((.def_423 (= b.bool_atom__AT1 .def_422)))
(let ((.def_463 (and .def_423 .def_462)))
(let ((.def_466 (and .def_463 .def_465)))
(let ((.def_467 (and .def_399 .def_466)))
(let ((.def_468 (and .def_402 .def_467)))
(let ((.def_469 (or .def_379 .def_468)))
(let ((.def_470 (or b.EVENT.1__AT1 .def_469)))
(let ((.def_478 (and .def_470 .def_477)))
(let ((.def_497 (and .def_478 .def_496)))
(let ((.def_386 (= b.time__AT1 b.time__AT2)))
(let ((.def_400 (and .def_386 .def_399)))
(let ((.def_403 (and .def_400 .def_402)))
(let ((.def_406 (and .def_403 .def_405)))
(let ((.def_414 (and .def_406 .def_413)))
(let ((.def_417 (and .def_414 .def_416)))
(let ((.def_418 (or .def_290 .def_417)))
(let ((.def_389 (* (- 1.0) b.time__AT2)))
(let ((.def_392 (+ b.delta__AT1 .def_389)))
(let ((.def_393 (+ b.time__AT1 .def_392)))
(let ((.def_394 (= .def_393 0.0 )))
(let ((.def_395 (or .def_381 .def_394)))
(let ((.def_396 (or b.EVENT.1__AT1 .def_395)))
(let ((.def_387 (or .def_379 .def_386)))
(let ((.def_388 (or b.EVENT.1__AT1 .def_387)))
(let ((.def_397 (and .def_388 .def_396)))
(let ((.def_419 (and .def_397 .def_418)))
(let ((.def_383 (= .def_381 b.event_is_timed__AT2)))
(let ((.def_380 (= b.event_is_timed__AT1 .def_379)))
(let ((.def_384 (and .def_380 .def_383)))
(let ((.def_420 (and .def_384 .def_419)))
(let ((.def_498 (and .def_420 .def_497)))
(let ((.def_502 (and .def_498 .def_501)))
(let ((.def_506 (and .def_502 .def_505)))
(let ((.def_507 (and .def_290 .def_506)))
(let ((.def_526 (and .def_507 .def_525)))
(let ((.def_530 (and .def_526 .def_529)))
(let ((.def_359 (* .def_125 b.delta__AT1)))
(let ((.def_362 (<= .def_359 b.speed_y__AT1)))
(let ((.def_369 (not .def_362)))
(let ((.def_370 (or .def_322 .def_369)))
(let ((.def_360 (<= b.speed_y__AT1 .def_359)))
(let ((.def_336 (<= b.speed_y__AT1 0.0 )))
(let ((.def_337 (not .def_336)))
(let ((.def_368 (or .def_337 .def_360)))
(let ((.def_371 (and .def_368 .def_370)))
(let ((.def_372 (or .def_116 .def_371)))
(let ((.def_364 (not .def_360)))
(let ((.def_365 (or .def_336 .def_364)))
(let ((.def_363 (or .def_323 .def_362)))
(let ((.def_366 (and .def_363 .def_365)))
(let ((.def_367 (or .def_121 .def_366)))
(let ((.def_373 (and .def_367 .def_372)))
(let ((.def_361 (and .def_336 .def_360)))
(let ((.def_374 (and .def_361 .def_373)))
(let ((.def_318 (* .def_81 b.delta__AT1)))
(let ((.def_319 (+ b.speed_y__AT1 .def_318)))
(let ((.def_334 (<= .def_319 0.0 )))
(let ((.def_335 (not .def_334)))
(let ((.def_354 (or .def_335 .def_336)))
(let ((.def_320 (<= 0.0 .def_319)))
(let ((.def_353 (or .def_320 .def_323)))
(let ((.def_355 (and .def_353 .def_354)))
(let ((.def_356 (or .def_121 .def_355)))
(let ((.def_321 (not .def_320)))
(let ((.def_350 (or .def_321 .def_322)))
(let ((.def_349 (or .def_334 .def_337)))
(let ((.def_351 (and .def_349 .def_350)))
(let ((.def_352 (or .def_116 .def_351)))
(let ((.def_357 (and .def_352 .def_356)))
(let ((.def_348 (and .def_320 .def_322)))
(let ((.def_358 (and .def_348 .def_357)))
(let ((.def_375 (or .def_358 .def_374)))
(let ((.def_310 (+ .def_308 .def_309)))
(let ((.def_311 (* (- 1.0) .def_296)))
(let ((.def_314 (+ .def_311 .def_310)))
(let ((.def_315 (+ b.y__AT1 .def_314)))
(let ((.def_328 (<= .def_315 0.0 )))
(let ((.def_342 (not .def_328)))
(let ((.def_326 (<= b.y__AT1 .def_296)))
(let ((.def_343 (or .def_326 .def_342)))
(let ((.def_297 (<= .def_296 b.y__AT1)))
(let ((.def_340 (not .def_297)))
(let ((.def_316 (<= 0.0 .def_315)))
(let ((.def_341 (or .def_316 .def_340)))
(let ((.def_344 (and .def_341 .def_343)))
(let ((.def_338 (or .def_335 .def_337)))
(let ((.def_339 (not .def_338)))
(let ((.def_345 (or .def_339 .def_344)))
(let ((.def_330 (not .def_316)))
(let ((.def_331 (or .def_297 .def_330)))
(let ((.def_327 (not .def_326)))
(let ((.def_329 (or .def_327 .def_328)))
(let ((.def_332 (and .def_329 .def_331)))
(let ((.def_324 (or .def_321 .def_323)))
(let ((.def_325 (not .def_324)))
(let ((.def_333 (or .def_325 .def_332)))
(let ((.def_346 (and .def_333 .def_345)))
(let ((.def_317 (and .def_297 .def_316)))
(let ((.def_347 (and .def_317 .def_346)))
(let ((.def_376 (and .def_347 .def_375)))
(let ((.def_377 (and .def_59 .def_376)))
(let ((.def_28 (not b.counter.0__AT0)))
(let ((.def_301 (or b.counter.1__AT0 .def_28)))
(let ((.def_31 (not b.counter.2__AT0)))
(let ((.def_302 (or .def_31 .def_301)))
(let ((.def_303 (or b.counter.3__AT0 .def_302)))
(let ((.def_298 (and .def_59 .def_297)))
(let ((.def_293 (or .def_290 .def_292)))
(let ((.def_283 (or .def_203 .def_213)))
(let ((.def_287 (or b.counter.3__AT1 .def_283)))
(let ((.def_284 (or b.counter.2__AT1 .def_283)))
(let ((.def_282 (or .def_208 .def_213)))
(let ((.def_285 (and .def_282 .def_284)))
(let ((.def_286 (or .def_222 .def_285)))
(let ((.def_288 (and .def_286 .def_287)))
(let ((.def_294 (and .def_288 .def_293)))
(let ((.def_299 (and .def_294 .def_298)))
(let ((.def_277 (<= 0.0 b.delta__AT0)))
(let ((.def_47 (not b.EVENT.0__AT0)))
(let ((.def_45 (not b.EVENT.1__AT0)))
(let ((.def_146 (and .def_45 .def_47)))
(let ((.def_148 (not .def_146)))
(let ((.def_278 (or .def_148 .def_277)))
(let ((.def_279 (or b.EVENT.1__AT0 .def_278)))
(let ((.def_188 (= b.bool_atom__AT0 b.bool_atom__AT1)))
(let ((.def_183 (= b.counter.0__AT0 b.counter.0__AT1)))
(let ((.def_180 (= b.counter.1__AT0 b.counter.1__AT1)))
(let ((.def_177 (= b.counter.2__AT0 b.counter.2__AT1)))
(let ((.def_175 (= b.counter.3__AT0 b.counter.3__AT1)))
(let ((.def_178 (and .def_175 .def_177)))
(let ((.def_181 (and .def_178 .def_180)))
(let ((.def_184 (and .def_181 .def_183)))
(let ((.def_273 (and .def_184 .def_188)))
(let ((.def_274 (or .def_148 .def_273)))
(let ((.def_275 (or b.EVENT.1__AT0 .def_274)))
(let ((.def_262 (* b.delta__AT0 .def_66)))
(let ((.def_263 (* (- 1.0) b.speed_y__AT1)))
(let ((.def_266 (+ .def_263 .def_262)))
(let ((.def_267 (+ b.speed_y__AT0 .def_266)))
(let ((.def_268 (= .def_267 0.0 )))
(let ((.def_254 (* (- 1.0) b.y__AT1)))
(let ((.def_72 (* b.delta__AT0 b.speed_y__AT0)))
(let ((.def_257 (+ .def_72 .def_254)))
(let ((.def_65 (* b.delta__AT0 b.delta__AT0)))
(let ((.def_70 (* .def_65 .def_69)))
(let ((.def_258 (+ .def_70 .def_257)))
(let ((.def_259 (+ b.y__AT0 .def_258)))
(let ((.def_260 (= .def_259 0.0 )))
(let ((.def_166 (= b.x__AT0 b.x__AT1)))
(let ((.def_261 (and .def_166 .def_260)))
(let ((.def_269 (and .def_261 .def_268)))
(let ((.def_270 (or .def_148 .def_269)))
(let ((.def_169 (= b.y__AT0 b.y__AT1)))
(let ((.def_249 (and .def_166 .def_169)))
(let ((.def_172 (= b.speed_y__AT0 b.speed_y__AT1)))
(let ((.def_250 (and .def_172 .def_249)))
(let ((.def_246 (= b.delta__AT0 0.0 )))
(let ((.def_247 (and .def_146 .def_246)))
(let ((.def_248 (not .def_247)))
(let ((.def_251 (or .def_248 .def_250)))
(let ((.def_252 (or b.EVENT.1__AT0 .def_251)))
(let ((.def_239 (and .def_172 .def_184)))
(let ((.def_240 (or b.bool_atom__AT0 .def_239)))
(let ((.def_214 (or b.counter.0__AT0 .def_213)))
(let ((.def_212 (or .def_28 b.counter.0__AT1)))
(let ((.def_215 (and .def_212 .def_214)))
(let ((.def_216 (and .def_203 .def_215)))
(let ((.def_217 (or b.counter.1__AT0 .def_216)))
(let ((.def_26 (not b.counter.1__AT0)))
(let ((.def_211 (or .def_26 b.counter.1__AT1)))
(let ((.def_218 (and .def_211 .def_217)))
(let ((.def_230 (and .def_208 .def_218)))
(let ((.def_231 (or b.counter.2__AT0 .def_230)))
(let ((.def_225 (and .def_28 .def_203)))
(let ((.def_226 (or b.counter.1__AT0 .def_225)))
(let ((.def_227 (and .def_211 .def_226)))
(let ((.def_228 (and b.counter.2__AT1 .def_227)))
(let ((.def_229 (or .def_31 .def_228)))
(let ((.def_232 (and .def_229 .def_231)))
(let ((.def_233 (and b.counter.3__AT1 .def_232)))
(let ((.def_234 (or b.counter.3__AT0 .def_233)))
(let ((.def_219 (and b.counter.2__AT1 .def_218)))
(let ((.def_220 (or b.counter.2__AT0 .def_219)))
(let ((.def_206 (or b.counter.1__AT0 b.counter.1__AT1)))
(let ((.def_204 (and b.counter.0__AT1 .def_203)))
(let ((.def_205 (or .def_26 .def_204)))
(let ((.def_207 (and .def_205 .def_206)))
(let ((.def_209 (and .def_207 .def_208)))
(let ((.def_210 (or .def_31 .def_209)))
(let ((.def_221 (and .def_210 .def_220)))
(let ((.def_223 (and .def_221 .def_222)))
(let ((.def_34 (not b.counter.3__AT0)))
(let ((.def_224 (or .def_34 .def_223)))
(let ((.def_235 (and .def_224 .def_234)))
(let ((.def_200 (* b.speed_y__AT0 b.speed_y__AT0)))
(let ((.def_201 (= .def_199 .def_200)))
(let ((.def_197 (+ b.speed_y__AT0 b.speed_y__AT1)))
(let ((.def_198 (= .def_197 0.0 )))
(let ((.def_202 (and .def_198 .def_201)))
(let ((.def_236 (and .def_202 .def_235)))
(let ((.def_196 (not b.bool_atom__AT0)))
(let ((.def_237 (or .def_196 .def_236)))
(let ((.def_52 (* (- 1.0) b.x__AT0)))
(let ((.def_53 (* b.x__AT0 .def_52)))
(let ((.def_193 (= b.y__AT0 .def_53)))
(let ((.def_86 (<= 0.0 b.speed_y__AT0)))
(let ((.def_87 (not .def_86)))
(let ((.def_194 (and .def_87 .def_193)))
(let ((.def_195 (= b.bool_atom__AT0 .def_194)))
(let ((.def_238 (and .def_195 .def_237)))
(let ((.def_241 (and .def_238 .def_240)))
(let ((.def_242 (and .def_166 .def_241)))
(let ((.def_243 (and .def_169 .def_242)))
(let ((.def_244 (or .def_146 .def_243)))
(let ((.def_245 (or b.EVENT.1__AT0 .def_244)))
(let ((.def_253 (and .def_245 .def_252)))
(let ((.def_271 (and .def_253 .def_270)))
(let ((.def_153 (= b.time__AT0 b.time__AT1)))
(let ((.def_167 (and .def_153 .def_166)))
(let ((.def_170 (and .def_167 .def_169)))
(let ((.def_173 (and .def_170 .def_172)))
(let ((.def_185 (and .def_173 .def_184)))
(let ((.def_189 (and .def_185 .def_188)))
(let ((.def_190 (or .def_45 .def_189)))
(let ((.def_156 (* (- 1.0) b.time__AT1)))
(let ((.def_159 (+ b.delta__AT0 .def_156)))
(let ((.def_160 (+ b.time__AT0 .def_159)))
(let ((.def_161 (= .def_160 0.0 )))
(let ((.def_162 (or .def_148 .def_161)))
(let ((.def_163 (or b.EVENT.1__AT0 .def_162)))
(let ((.def_154 (or .def_146 .def_153)))
(let ((.def_155 (or b.EVENT.1__AT0 .def_154)))
(let ((.def_164 (and .def_155 .def_163)))
(let ((.def_191 (and .def_164 .def_190)))
(let ((.def_150 (= .def_148 b.event_is_timed__AT1)))
(let ((.def_147 (= b.event_is_timed__AT0 .def_146)))
(let ((.def_151 (and .def_147 .def_150)))
(let ((.def_192 (and .def_151 .def_191)))
(let ((.def_272 (and .def_192 .def_271)))
(let ((.def_276 (and .def_272 .def_275)))
(let ((.def_280 (and .def_276 .def_279)))
(let ((.def_281 (and .def_45 .def_280)))
(let ((.def_300 (and .def_281 .def_299)))
(let ((.def_304 (and .def_300 .def_303)))
(let ((.def_126 (* b.delta__AT0 .def_125)))
(let ((.def_129 (<= .def_126 b.speed_y__AT0)))
(let ((.def_136 (not .def_129)))
(let ((.def_137 (or .def_86 .def_136)))
(let ((.def_127 (<= b.speed_y__AT0 .def_126)))
(let ((.def_100 (<= b.speed_y__AT0 0.0 )))
(let ((.def_101 (not .def_100)))
(let ((.def_135 (or .def_101 .def_127)))
(let ((.def_138 (and .def_135 .def_137)))
(let ((.def_139 (or .def_116 .def_138)))
(let ((.def_131 (not .def_127)))
(let ((.def_132 (or .def_100 .def_131)))
(let ((.def_130 (or .def_87 .def_129)))
(let ((.def_133 (and .def_130 .def_132)))
(let ((.def_134 (or .def_121 .def_133)))
(let ((.def_140 (and .def_134 .def_139)))
(let ((.def_128 (and .def_100 .def_127)))
(let ((.def_141 (and .def_128 .def_140)))
(let ((.def_82 (* b.delta__AT0 .def_81)))
(let ((.def_83 (+ b.speed_y__AT0 .def_82)))
(let ((.def_98 (<= .def_83 0.0 )))
(let ((.def_99 (not .def_98)))
(let ((.def_119 (or .def_99 .def_100)))
(let ((.def_84 (<= 0.0 .def_83)))
(let ((.def_118 (or .def_84 .def_87)))
(let ((.def_120 (and .def_118 .def_119)))
(let ((.def_122 (or .def_120 .def_121)))
(let ((.def_85 (not .def_84)))
(let ((.def_114 (or .def_85 .def_86)))
(let ((.def_113 (or .def_98 .def_101)))
(let ((.def_115 (and .def_113 .def_114)))
(let ((.def_117 (or .def_115 .def_116)))
(let ((.def_123 (and .def_117 .def_122)))
(let ((.def_112 (and .def_84 .def_86)))
(let ((.def_124 (and .def_112 .def_123)))
(let ((.def_142 (or .def_124 .def_141)))
(let ((.def_73 (+ .def_70 .def_72)))
(let ((.def_74 (* (- 1.0) .def_53)))
(let ((.def_77 (+ .def_74 .def_73)))
(let ((.def_78 (+ b.y__AT0 .def_77)))
(let ((.def_92 (<= .def_78 0.0 )))
(let ((.def_106 (not .def_92)))
(let ((.def_90 (<= b.y__AT0 .def_53)))
(let ((.def_107 (or .def_90 .def_106)))
(let ((.def_54 (<= .def_53 b.y__AT0)))
(let ((.def_104 (not .def_54)))
(let ((.def_79 (<= 0.0 .def_78)))
(let ((.def_105 (or .def_79 .def_104)))
(let ((.def_108 (and .def_105 .def_107)))
(let ((.def_102 (or .def_99 .def_101)))
(let ((.def_103 (not .def_102)))
(let ((.def_109 (or .def_103 .def_108)))
(let ((.def_94 (not .def_79)))
(let ((.def_95 (or .def_54 .def_94)))
(let ((.def_91 (not .def_90)))
(let ((.def_93 (or .def_91 .def_92)))
(let ((.def_96 (and .def_93 .def_95)))
(let ((.def_88 (or .def_85 .def_87)))
(let ((.def_89 (not .def_88)))
(let ((.def_97 (or .def_89 .def_96)))
(let ((.def_110 (and .def_97 .def_109)))
(let ((.def_80 (and .def_54 .def_79)))
(let ((.def_111 (and .def_80 .def_110)))
(let ((.def_143 (and .def_111 .def_142)))
(let ((.def_144 (and .def_59 .def_143)))
(let ((.def_60 (and .def_54 .def_59)))
(let ((.def_48 (or .def_45 .def_47)))
(let ((.def_38 (or .def_26 .def_28)))
(let ((.def_42 (or b.counter.3__AT0 .def_38)))
(let ((.def_39 (or b.counter.2__AT0 .def_38)))
(let ((.def_37 (or .def_28 .def_31)))
(let ((.def_40 (and .def_37 .def_39)))
(let ((.def_41 (or .def_34 .def_40)))
(let ((.def_43 (and .def_41 .def_42)))
(let ((.def_49 (and .def_43 .def_48)))
(let ((.def_61 (and .def_49 .def_60)))
(let ((.def_29 (and .def_26 .def_28)))
(let ((.def_32 (and .def_29 .def_31)))
(let ((.def_35 (and .def_32 .def_34)))
(let ((.def_23 (= b.y__AT0 10.0 )))
(let ((.def_19 (= b.x__AT0 0.0 )))
(let ((.def_15 (= b.time__AT0 0.0 )))
(let ((.def_17 (and .def_15 b.event_is_timed__AT0)))
(let ((.def_20 (and .def_17 .def_19)))
(let ((.def_24 (and .def_20 .def_23)))
(let ((.def_36 (and .def_24 .def_35)))
(let ((.def_62 (and .def_36 .def_61)))
(let ((.def_6 (or .def_4 b.counter.1__AT2)))
(let ((.def_9 (or .def_6 .def_8)))
(let ((.def_11 (or .def_9 b.counter.3__AT2)))
(let ((.def_12 (not .def_11)))
(let ((.def_63 (and .def_12 .def_62)))
(let ((.def_145 (and .def_63 .def_144)))
(let ((.def_305 (and .def_145 .def_304)))
(let ((.def_378 (and .def_305 .def_377)))
(let ((.def_531 (and .def_378 .def_530)))
(let ((.def_604 (and .def_531 .def_603)))
.def_604)))))))))))))))))))))))))))))))))))))))))))))))))))))))))))))))))))))))))))))))))))))))))))))))))))))))))))))))))))))))))))))))))))))))))))))))))))))))))))))))))))))))))))))))))))))))))))))))))))))))))))))))))))))))))))))))))))))))))))))))))))))))))))))))))))))))))))))))))))))))))))))))))))))))))))))))))))))))))))))))))))))))))))))))))))))))))))))))))))))))))))))))))))))))))))))))))))))))))))))))))))))))))))))))))))))))))))))))))))))))))))))))))))))))))))))))))))))))))))))))))))))))))))))))))))))))))))))))))))))))))))))))))))))))))
(check-sat)
(exit)
